40118 39387 
39688 39717 
38861 40369 
38432 40639 
36549 41498 
36460 41507 
39136 40182 
38459 40623 
38101 40884 
37533 41144 
36789 41427 
36161 41565 
37066 41293 
38006 40906 
36072 41574 
38128 40868 
37560 41128 
36298 41527 
37364 41280 
36976 41347 
